p cnf 136 461
-1 2 -3 0
1 -2 -3 0
-1 -2 3 0
1 2 3 0
-3 -4 -5 0
3 4 -5 0
-3 4 5 0
3 -4 5 0
7 -6 0
7 6 0
8 5 0
8 7 0
-5 -7 -8 0
11 -9 0
11 10 0
9 -10 -11 0
12 -1 -13 0
-12 1 -13 0
12 1 13 0
-12 -1 13 0
-14 11 0
-14 -13 0
-11 13 14 0
15 14 0
15 -3 0
-14 3 -15 0
-16 8 0
-16 -15 0
-8 15 16 0
-18 16 0
-18 -17 0
-16 17 18 0
-21 -19 0
-21 20 0
19 -20 21 0
18 -21 -22 0
-18 21 -22 0
18 21 22 0
-18 -21 22 0
-23 -22 0
-23 10 0
22 -10 23 0
25 -2 0
25 9 0
2 -9 -25 0
21 25 -26 0
-21 -25 -26 0
21 -25 26 0
-21 25 26 0
-24 26 -27 0
24 -26 -27 0
-24 -26 27 0
24 26 27 0
-28 9 0
-28 -17 0
-9 17 28 0
-29 -20 0
-29 -28 0
20 28 29 0
30 27 0
30 -29 0
-27 29 -30 0
-2 -13 -31 0
2 13 -31 0
-2 13 31 0
2 -13 31 0
33 12 0
33 -32 0
-12 32 -33 0
33 2 -34 0
-33 -2 -34 0
33 -2 34 0
-33 2 34 0
35 33 0
35 -34 0
-33 34 -35 0
-35 4 -36 0
35 -4 -36 0
-35 -4 36 0
35 4 36 0
37 -33 0
37 32 0
33 -32 -37 0
-38 36 0
-38 -37 0
-36 37 38 0
39 -6 0
39 -9 0
6 9 -39 0
-39 -17 -40 0
39 17 -40 0
-39 17 40 0
39 -17 40 0
-41 -38 0
-41 40 0
38 -40 41 0
42 4 0
42 4 0
-4 -42 0
34 -43 -44 0
-34 43 -44 0
34 43 44 0
-34 -43 44 0
-45 -10 0
-45 16 0
10 -16 45 0
46 -44 0
46 -45 0
44 45 -46 0
47 -42 0
47 46 0
42 -46 -47 0
48 41 0
48 -47 0
-41 47 -48 0
-36 7 -49 0
36 -7 -49 0
-36 -7 49 0
36 7 49 0
-50 -48 0
-50 -49 0
48 49 50 0
31 50 -51 0
-31 -50 -51 0
31 -50 51 0
-31 50 51 0
-30 51 -52 0
30 -51 -52 0
-30 -51 52 0
30 51 52 0
-55 -54 0
-55 -54 0
54 55 0
56 -53 0
56 -55 0
53 55 -56 0
-58 57 0
-58 -53 0
-57 53 58 0
-59 -57 0
-59 -7 0
57 7 59 0
-34 59 -60 0
34 -59 -60 0
-34 -59 60 0
34 59 60 0
61 -58 0
61 -60 0
58 60 -61 0
56 -61 -62 0
-56 61 -62 0
56 61 62 0
-56 -61 62 0
63 -60 0
63 55 0
60 -55 -63 0
-64 -62 0
-64 -63 0
62 63 64 0
14 8 -65 0
-14 -8 -65 0
14 -8 65 0
-14 8 65 0
-66 2 0
-66 -17 0
-2 17 66 0
7 66 -67 0
-7 -66 -67 0
7 -66 67 0
-7 66 67 0
68 -65 0
68 -67 0
65 67 -68 0
69 64 0
69 68 0
-64 -68 -69 0
70 -32 0
70 3 0
32 -3 -70 0
32 70 -71 0
-32 -70 -71 0
32 -70 71 0
-32 70 71 0
-72 -60 0
-72 71 0
60 -71 72 0
73 69 0
73 -72 0
-69 72 -73 0
-74 -66 0
-74 15 0
66 -15 74 0
-3 -6 -75 0
3 6 -75 0
-3 6 75 0
3 -6 75 0
-76 -74 0
-76 -75 0
74 75 76 0
-3 13 -77 0
3 -13 -77 0
-3 -13 77 0
3 13 77 0
78 67 0
78 -74 0
-67 74 -78 0
77 -78 -79 0
-77 78 -79 0
77 78 79 0
-77 -78 79 0
-80 -76 0
-80 79 0
76 -79 80 0
-81 73 0
-81 -80 0
-73 80 81 0
82 15 0
82 -67 0
-15 67 -82 0
83 -82 0
83 60 0
82 -60 -83 0
39 55 -84 0
-39 -55 -84 0
39 -55 84 0
-39 55 84 0
83 84 -85 0
-83 -84 -85 0
83 -84 85 0
-83 84 85 0
-86 26 0
-86 59 0
-26 -59 86 0
87 85 0
87 -86 0
-85 86 -87 0
-88 -4 0
-88 -58 0
4 58 88 0
-89 -11 0
-89 -12 0
11 12 89 0
-90 -15 0
-90 -57 0
15 57 90 0
-90 -19 -91 0
90 19 -91 0
-90 19 91 0
90 -19 91 0
-92 -89 0
-92 91 0
89 -91 92 0
19 9 -93 0
-19 -9 -93 0
19 -9 93 0
-19 9 93 0
-93 -75 -94 0
93 75 -94 0
-93 75 94 0
93 -75 94 0
95 -60 0
95 94 0
60 -94 -95 0
96 95 0
96 -16 0
-95 16 -96 0
-94 34 -97 0
94 -34 -97 0
-94 -34 97 0
94 34 97 0
4 32 -98 0
-4 -32 -98 0
4 -32 98 0
-4 32 98 0
99 97 0
99 98 0
-97 -98 -99 0
100 -99 0
100 -43 0
99 43 -100 0
96 -100 -101 0
-96 100 -101 0
96 100 101 0
-96 -100 101 0
102 -92 0
102 -101 0
92 101 -102 0
-103 -88 0
-103 -102 0
88 102 103 0
-59 -75 -104 0
59 75 -104 0
-59 75 104 0
59 -75 104 0
103 104 -105 0
-103 -104 -105 0
103 -104 105 0
-103 104 105 0
87 -105 -106 0
-87 105 -106 0
87 105 106 0
-87 -105 106 0
107 81 0
107 -106 0
-81 106 -107 0
-108 52 0
-108 107 0
-52 -107 108 0
-109 -23 0
-109 -108 0
23 108 109 0
110 2 0
110 14 0
-2 -14 -110 0
111 -19 0
111 22 0
19 -22 -111 0
-112 -37 0
-112 -111 0
37 111 112 0
-113 110 0
-113 112 0
-110 -112 113 0
-114 59 0
-114 14 0
-59 -14 114 0
35 -55 -115 0
-35 55 -115 0
35 55 115 0
-35 -55 115 0
116 -115 0
116 74 0
115 -74 -116 0
114 116 -117 0
-114 -116 -117 0
114 -116 117 0
-114 116 117 0
-74 -97 -118 0
74 97 -118 0
-74 97 118 0
74 -97 118 0
5 66 -119 0
-5 -66 -119 0
5 -66 119 0
-5 66 119 0
-118 119 -120 0
118 -119 -120 0
-118 -119 120 0
118 119 120 0
-121 117 0
-121 -120 0
-117 120 121 0
122 -4 0
122 -10 0
4 10 -122 0
-123 -122 0
-123 10 0
122 -10 123 0
-124 20 0
-124 33 0
-20 -33 124 0
123 -124 -125 0
-123 124 -125 0
123 124 125 0
-123 -124 125 0
-126 -115 0
-126 4 0
115 -4 126 0
127 74 0
127 43 0
-74 -43 -127 0
18 19 -128 0
-18 -19 -128 0
18 -19 128 0
-18 19 128 0
129 -127 0
129 -128 0
127 128 -129 0
126 -129 -130 0
-126 129 -130 0
126 129 130 0
-126 -129 130 0
131 -21 0
131 8 0
21 -8 -131 0
-132 -130 0
-132 -131 0
130 131 132 0
-133 -125 0
-133 -132 0
125 132 133 0
-134 -121 0
-134 133 0
121 -133 134 0
135 -113 0
135 134 0
113 -134 -135 0
-136 109 0
-136 135 0
-109 -135 136 0
-23 124 -62 -77 0
62 -21 70 0
-9 94 0
-92 -17 -56 -18 58 -129 0
68 -82 -78 0
-70 109 103 -89 -42 10 0
-85 74 0
9 54 20 -118 122 0
-34 -125 6 -111 -51 46 0
-107 1 0
65 26 71 0
-115 12 -40 0
-132 -54 88 0
105 -49 16 -101 117 0
-19 16 0
-6 124 45 -32 81 0
-23 -101 -10 37 -105 134 0
-123 37 -28 125 0
131 -104 -74 119 0
-70 130 21 -71 -56 0
-125 -75 25 57 63 0
32 -98 33 0
129 -71 10 -96 39 0
88 -130 13 66 0
115 -47 112 27 89 0
54 -118 75 59 -125 0
30 -61 55 -4 0
53 -69 118 0
-132 -5 0
-14 -35 -126 -20 25 -27 0
-18 64 0
114 -46 -31 97 0
16 -98 0
16 35 0
-88 -9 -71 0
-5 75 87 0
-15 -102 -51 -110 39 0
66 50 0
-76 -33 99 0
-9 -25 0
-71 -51 25 0
75 135 55 0
72 7 91 39 0
6 -117 106 -32 0
-27 2 34 -94 -66 132 0
13 -57 0
-118 -50 126 0
-120 -105 132 0
-42 -47 122 -111 0
-82 100 66 -68 0
43 55 0
2 49 51 0
-34 99 97 -1 -58 0
-16 -133 -62 8 -55 0
110 -30 -21 -90 0
-12 -41 -1 13 15 -35 0
-58 -39 40 -63 0
-86 -123 -114 93 -87 119 0
101 123 0
117 87 0
136 0
